
#######################################################################
#
#                 Cambridge Crystallographic Data Centre
#                                CCDC
#
#######################################################################
#
# If this CIF has been generated from an entry in the Cambridge
# Structural Database, then it will include bibliographic, chemical,
# crystal, experimental, refinement or atomic coordinate data resulting
# from the CCDC's data processing and validation procedures.
#
#######################################################################

data_CSD_CIF_BMLTAA
_audit_creation_date 1981-02-05
_audit_creation_method CSD-ConQuest-V1
_database_code_CSD BMLTAA
_database_code_depnum_ccdc_archive 'CCDC 1112562'
_chemical_formula_sum 'C4 Br2 O2 S1'
_chemical_formula_moiety
;
C4 Br2 O2 S1
;
_journal_coden_Cambridge 68
_journal_volume 35
_journal_year 1980
_journal_page_first 14
_journal_name_full 'Z.Naturforsch.,A:Phys.Sci. '
loop_
_publ_author_name
"W.Gonschorek"
_chemical_name_systematic
;
Dibromo-(maleic acid)-thioanhydride
;
_chemical_name_common
;
Teaching Subset: Fundamental Chemistry
;
_cell_volume    691.581
_exptl_crystal_density_diffrn 2.611
_exptl_special_details
;
Isomorphous with the I analogue

;
_diffrn_ambient_temperature ?
_diffrn_special_details
;
The study was carried out at room temperature,in the range 283-303K

;
#These two values have been output from a single CSD field.
_refine_ls_R_factor_gt 0.027
_refine_ls_wR_factor_gt 0.027
_symmetry_cell_setting tetragonal
_symmetry_space_group_name_H-M 'P 41 21 2'
_symmetry_Int_Tables_number 92
loop_
_symmetry_equiv_pos_site_id
_symmetry_equiv_pos_as_xyz
1 x,y,z
2 1/2-y,1/2+x,1/4+z
3 -x,-y,1/2+z
4 1/2+y,1/2-x,3/4+z
5 y,x,-z
6 1/2+x,1/2-y,3/4-z
7 -y,-x,1/2-z
8 1/2-x,1/2+y,1/4-z
_cell_length_a 7.543(1)
_cell_length_b 7.543(1)
_cell_length_c 12.155(4)
_cell_angle_alpha 90
_cell_angle_beta 90
_cell_angle_gamma 90
_cell_formula_units_Z 4
loop_
_atom_type_symbol
_atom_type_radius_bond
C 0.68
Br 1.21
O 0.68
S 1.02
loop_
_atom_site_label
_atom_site_type_symbol
_atom_site_fract_x
_atom_site_fract_y
_atom_site_fract_z
S1 S 0.33220 0.33220 0.00000
C1 C 0.03730 0.13960 0.03060
C2 C 0.11720 0.31290 0.05900
O1 O 0.05460 0.42180 0.11930
Br1 Br -0.18940 0.08600 0.08040
C2D C 0.31290 0.11720 -0.05900
C1D C 0.13960 0.03730 -0.03060
O1D O 0.42180 0.05460 -0.11930
Br1D Br 0.08600 -0.18940 -0.08040
#END
