
#######################################################################
#
#                 Cambridge Crystallographic Data Centre
#                                CCDC
#
#######################################################################
#
# If this CIF has been generated from an entry in the Cambridge
# Structural Database, then it will include bibliographic, chemical,
# crystal, experimental, refinement or atomic coordinate data resulting
# from the CCDC's data processing and validation procedures.
#
#######################################################################

data_CSD_CIF_BONFIT
_audit_creation_date 1983-09-01
_audit_creation_method CSD-ConQuest-V1
_database_code_CSD BONFIT
_database_code_depnum_ccdc_archive 'CCDC 1113782'
_chemical_formula_sum 'C2 Br2 F2 N2'
_chemical_formula_moiety
;
C2 Br2 F2 N2
;
_journal_coden_Cambridge 48
_journal_volume 116
_journal_year 1983
_journal_page_first 724
_journal_name_full 'Chem.Ber. '
loop_
_publ_author_name
"A.Waterfeld"
"W.Isenberg"
"R.Mews"
"W.Clegg"
"G.M.Sheldrick"
_chemical_name_systematic
;
N,N'-Dibromoethanedi-imidoyl-difluoride
;
_chemical_name_common
;
Teaching Subset: Symmetry
;
_chemical_melting_point 331.15
_cell_volume    628.028
_exptl_crystal_colour 'colorless'
_exptl_crystal_density_diffrn 2.64
_diffrn_ambient_temperature ?
_diffrn_special_details
;
The study was carried out at room temperature,in the range 283-303K

;
#These two values have been output from a single CSD field.
_refine_ls_R_factor_gt 0.054
_refine_ls_wR_factor_gt 0.054
_symmetry_cell_setting monoclinic
_symmetry_space_group_name_H-M 'P 21/n'
_symmetry_Int_Tables_number 14
loop_
_symmetry_equiv_pos_site_id
_symmetry_equiv_pos_as_xyz
1 x,y,z
2 1/2-x,1/2+y,1/2-z
3 -x,-y,-z
4 -1/2+x,-1/2-y,-1/2+z
_cell_length_a 7.468(2)
_cell_length_b 12.505(4)
_cell_length_c 7.583(4)
_cell_angle_alpha 90
_cell_angle_beta 117.52(6)
_cell_angle_gamma 90
_cell_formula_units_Z 4
loop_
_atom_type_symbol
_atom_type_radius_bond
C 0.68
Br 1.21
F 0.64
N 0.68
loop_
_atom_site_label
_atom_site_type_symbol
_atom_site_fract_x
_atom_site_fract_y
_atom_site_fract_z
Br1 Br 0.29300 0.35430 0.28510
Br2 Br 0.25850 -0.10210 0.74100
C1 C 0.27570 0.16420 0.44200
C2 C 0.27260 0.08650 0.58270
F1 F 0.26750 0.12200 0.27780
F2 F 0.28040 0.13000 0.74480
N1 N 0.28670 0.26340 0.47660
N2 N 0.26210 -0.01190 0.54700
#END
