
#######################################################################
#
#                 Cambridge Crystallographic Data Centre
#                                CCDC
#
#######################################################################
#
# If this CIF has been generated from an entry in the Cambridge
# Structural Database, then it will include bibliographic, chemical,
# crystal, experimental, refinement or atomic coordinate data resulting
# from the CCDC's data processing and validation procedures.
#
#######################################################################

data_CSD_CIF_CDSCDS
_audit_creation_date 1981-12-23
_audit_creation_method CSD-ConQuest-V1
_database_code_CSD CDSCDS
_database_code_depnum_ccdc_archive 'CCDC 1121798'
_chemical_formula_sum 'C1 S14'
_chemical_formula_moiety
;
C1 S2,S12
;
_journal_coden_Cambridge 29
_journal_volume 476
_journal_year 1981
_journal_page_first 171
_journal_name_full 'Z.Anorg.Allg.Chem. '
loop_
_publ_author_name
"J.Steidel"
"R.Steudel"
"A.Kutoglu"
_chemical_name_systematic
;
cyclododecasulfur carbon disulfide
;
_chemical_name_common
;
Teaching Subset: Symmetry
;
_cell_volume   1138.456
_exptl_crystal_density_diffrn 2.04
_diffrn_ambient_temperature 168.15
#These two values have been output from a single CSD field.
_refine_ls_R_factor_gt 0.033
_refine_ls_wR_factor_gt 0.033
_symmetry_cell_setting rhombohedral
_symmetry_space_group_name_H-M 'R -3 m'
_symmetry_Int_Tables_number 166
loop_
_symmetry_equiv_pos_site_id
_symmetry_equiv_pos_as_xyz
1 x,y,z
2 1/3+x,2/3+y,2/3+z
3 2/3+x,1/3+y,1/3+z
4 -y,x-y,z
5 -x+y,-x,z
6 1/3-y,2/3+x-y,2/3+z
7 1/3-x+y,2/3-x,2/3+z
8 2/3-y,1/3+x-y,1/3+z
9 2/3-x+y,1/3-x,1/3+z
10 y,x,-z
11 2/3+y,1/3+x,1/3-z
12 1/3+y,2/3+x,2/3-z
13 x-y,-y,-z
14 -x,-x+y,-z
15 2/3+x-y,1/3-y,1/3-z
16 2/3-x,1/3-x+y,1/3-z
17 1/3+x-y,2/3-y,2/3-z
18 1/3-x,2/3-x+y,2/3-z
19 -x,-y,-z
20 -1/3-x,-2/3-y,-2/3-z
21 -2/3-x,-1/3-y,-1/3-z
22 y,-x+y,-z
23 x-y,x,-z
24 -1/3+y,-2/3-x+y,-2/3-z
25 -1/3+x-y,-2/3+x,-2/3-z
26 -2/3+y,-1/3-x+y,-1/3-z
27 -2/3+x-y,-1/3+x,-1/3-z
28 -y,-x,z
29 -2/3-y,-1/3-x,-1/3+z
30 -1/3-y,-2/3-x,-2/3+z
31 -x+y,y,z
32 x,x-y,z
33 -2/3-x+y,-1/3+y,-1/3+z
34 -2/3+x,-1/3+x-y,-1/3+z
35 -1/3-x+y,-2/3+y,-2/3+z
36 -1/3+x,-2/3+x-y,-2/3+z
_cell_length_a 10.668(3)
_cell_length_b 10.668(3)
_cell_length_c 11.551(4)
_cell_angle_alpha 90
_cell_angle_beta 90
_cell_angle_gamma 120
_cell_formula_units_Z 3
loop_
_atom_type_symbol
_atom_type_radius_bond
C 0.68
S 1.02
loop_
_atom_site_label
_atom_site_type_symbol
_atom_site_fract_x
_atom_site_fract_y
_atom_site_fract_z
S1 S 0.12810 -0.12810 0.09924
S2 S 0.30717 0.00000 0.00000
S3 S 0.00000 0.00000 0.36608
C1 C 0.00000 0.00000 0.50000
S2U S 0.00000 -0.30717 0.00000
S1V S 0.25620 0.12810 -0.09924
S1U S -0.12810 -0.25620 -0.09924
S2V S 0.30717 0.30717 0.00000
S2D S -0.30717 -0.30717 0.00000
S1C S 0.12810 0.25620 0.09924
S1D S -0.25620 -0.12810 0.09924
S2C S 0.00000 0.30717 0.00000
S2R S -0.30717 0.00000 0.00000
S1R S -0.12810 0.12810 -0.09924
S3R S 0.00000 0.00000 0.63392
#END
