
#######################################################################
#
#                 Cambridge Crystallographic Data Centre
#                                CCDC
#
#######################################################################
#
# If this CIF has been generated from an entry in the Cambridge
# Structural Database, then it will include bibliographic, chemical,
# crystal, experimental, refinement or atomic coordinate data resulting
# from the CCDC's data processing and validation procedures.
#
#######################################################################

data_CSD_CIF_CLCBUT
_audit_creation_date 1971-12-31
_audit_creation_method CSD-ConQuest-V1
_database_code_CSD CLCBUT
_database_code_depnum_ccdc_archive 'CCDC 1127076'
_chemical_formula_sum 'C4 Cl8'
_chemical_formula_moiety
;
C4 Cl8
;
_journal_coeditor_code "IUCr A04893"
_journal_coden_Cambridge 1
_journal_volume 19
_journal_year 1965
_journal_page_first 857
_journal_name_full 'Acta Crystallogr. '
loop_
_publ_author_name
"T.N.Margulis"
_chemical_name_systematic
;
Octachlorocyclobutane
;
_chemical_name_common
;
Teaching Subset: Fundamental Chemistry, Symmetry
;
_cell_volume    509.107
_diffrn_ambient_temperature ?
_diffrn_special_details
;
The study was carried out at room temperature,in the range 283-303K

;
#These two values have been output from a single CSD field.
_refine_ls_R_factor_gt 0.12
_refine_ls_wR_factor_gt 0.12
_symmetry_cell_setting monoclinic
_symmetry_space_group_name_H-M 'P 21/m'
_symmetry_Int_Tables_number 11
loop_
_symmetry_equiv_pos_site_id
_symmetry_equiv_pos_as_xyz
1 x,y,z
2 -x,1/2+y,-z
3 -x,-y,-z
4 x,-1/2-y,z
_cell_length_a 8.0
_cell_length_b 10.64
_cell_length_c 6.28
_cell_angle_alpha 90
_cell_angle_beta 107.75
_cell_angle_gamma 90
_cell_formula_units_Z 2
loop_
_atom_type_symbol
_atom_type_radius_bond
C 0.68
Cl 0.99
loop_
_atom_site_label
_atom_site_type_symbol
_atom_site_fract_x
_atom_site_fract_y
_atom_site_fract_z
Cl1 Cl 0.24070 0.08960 -0.00900
Cl2 Cl 0.23920 0.01730 0.42510
Cl3 Cl 0.46150 0.25000 0.64110
Cl4 Cl 0.02050 0.25000 0.46620
Cl5 Cl -0.08370 0.25000 -0.00500
Cl6 Cl 0.56400 0.25000 0.24680
C1 C 0.09600 0.25000 0.24000
C2 C 0.23900 0.14700 0.25100
C3 C 0.38600 0.25000 0.34500
C2C C 0.23900 0.35300 0.25100
Cl1C Cl 0.24070 0.41040 -0.00900
Cl2C Cl 0.23920 0.48270 0.42510
#END
