
#######################################################################
#
#                 Cambridge Crystallographic Data Centre
#                                CCDC
#
#######################################################################
#
# If this CIF has been generated from an entry in the Cambridge
# Structural Database, then it will include bibliographic, chemical,
# crystal, experimental, refinement or atomic coordinate data resulting
# from the CCDC's data processing and validation procedures.
#
#######################################################################

data_CSD_CIF_COXYIX
_audit_creation_date 2000-05-03
_audit_creation_method CSD-ConQuest-V1
_database_code_CSD COXYIX
_database_code_depnum_ccdc_archive 'CCDC 132652'
_chemical_formula_sum 'C1 Cl2 F3 I1'
_chemical_formula_moiety
;
C1 Cl2 F3 I1
;
_journal_coden_Cambridge 9
_journal_volume 38
_journal_year 1999
_journal_page_first 5041
_journal_name_full 'Inorg.Chem. '
loop_
_publ_author_name
"R.Minkwitz"
"M.Berkei"
_chemical_name_systematic
;
(Dichloro-trifluoromethyl)iodine
;
_chemical_name_common
;
Teaching Subset: Fundamental Chemistry, Symmetry
;
_cell_volume   1181.997
_exptl_crystal_colour 'pale yellow'
_exptl_crystal_density_diffrn 2.999
_exptl_special_details
;
moisture-sensitive

;
_exptl_crystal_description 'parallelepiped'
_exptl_crystal_preparation 'liquid sulfur dioxide'
_diffrn_ambient_temperature 173
#These two values have been output from a single CSD field.
_refine_ls_R_factor_gt 0.0341
_refine_ls_wR_factor_gt 0.0341
_symmetry_cell_setting orthorhombic
_symmetry_space_group_name_H-M 'C m c a'
_symmetry_Int_Tables_number 64
loop_
_symmetry_equiv_pos_site_id
_symmetry_equiv_pos_as_xyz
1 x,y,z
2 1/2+x,1/2+y,z
3 -x,1/2-y,1/2+z
4 -x,1/2+y,1/2-z
5 x,-y,-z
6 1/2-x,-y,1/2+z
7 1/2-x,y,1/2-z
8 1/2+x,1/2-y,-z
9 -x,-y,-z
10 -1/2-x,-1/2-y,-z
11 x,-1/2+y,-1/2-z
12 x,-1/2-y,-1/2+z
13 -x,y,z
14 -1/2+x,y,-1/2-z
15 -1/2+x,-y,-1/2+z
16 -1/2-x,-1/2+y,z
_cell_length_a 6.990(1)
_cell_length_b 7.985(1)
_cell_length_c 21.177(1)
_cell_angle_alpha 90
_cell_angle_beta 90
_cell_angle_gamma 90
_cell_formula_units_Z 8
loop_
_atom_type_symbol
_atom_type_radius_bond
C 0.68
Cl 0.99
F 0.64
I 1.40
loop_
_atom_site_label
_atom_site_type_symbol
_atom_site_fract_x
_atom_site_fract_y
_atom_site_fract_z
I1 I 0.50000 0.16056(6) 0.67184(3)
Cl1 Cl 0.50000 0.4674(2) 0.68913(12)
Cl2 Cl 0.50000 -0.1339(2) 0.63816(15)
C1 C 0.50000 0.2081(13) 0.5681(5)
F1 F 0.50000 0.3688(6) 0.5574(3)
F2 F 0.3467(9) 0.1405(4) 0.5446(2)
F2L F 0.6533(9) 0.1405(4) 0.5446(2)
#END
