
#######################################################################
#
#                 Cambridge Crystallographic Data Centre
#                                CCDC
#
#######################################################################
#
# If this CIF has been generated from an entry in the Cambridge
# Structural Database, then it will include bibliographic, chemical,
# crystal, experimental, refinement or atomic coordinate data resulting
# from the CCDC's data processing and validation procedures.
#
#######################################################################

data_CSD_CIF_DUNMUX
_audit_creation_date 2020-05-15
_audit_creation_method CSD-ConQuest-V1
_database_code_CSD DUNMUX
_database_code_depnum_ccdc_archive 'CCDC 1970969'
_chemical_formula_sum 'C7 F4 I1 N2 S2'
_chemical_formula_moiety
;
C7 F4 I1 N2 S2
;
_journal_coden_Cambridge 1147
_journal_volume 20
_journal_year 2020
_journal_page_first 4313
_journal_name_full 'Cryst.Growth Des. '
loop_
_publ_author_name
"M.A.Nascimento"
"E.Heyer"
"R.J.Less"
"C.M.Pask"
"A.Arauzo"
"J.Campo"
"J.M.Rawson"
_chemical_name_systematic
;
4-(2,3,5,6-tetrafluoro-4-iodophenyl)-1,2,3,5-dithiadiazol-3-yl radical
;
_cell_volume   2041.659
_exptl_crystal_colour 'purple'
_exptl_crystal_density_diffrn 2.467
_exptl_special_details
;
Air-sensitive,Moisture-sensitive

;
_exptl_crystal_description 'plate'
_exptl_crystal_preparation 'Sublimation'
_diffrn_ambient_temperature 170
_diffrn_special_details
;
twin

;
#These two values have been output from a single CSD field.
_refine_ls_R_factor_gt 0.0278
_refine_ls_wR_factor_gt 0.0278
_symmetry_cell_setting orthorhombic
_symmetry_space_group_name_H-M 'A b a 2'
_symmetry_Int_Tables_number 41
loop_
_symmetry_equiv_pos_site_id
_symmetry_equiv_pos_as_xyz
1 x,y,z
2 -x,-y,z
3 1/2-x,y,1/2+z
4 1/2+x,-y,1/2+z
5 x,1/2+y,1/2+z
6 -x,1/2-y,1/2+z
7 1/2-x,1/2+y,z
8 1/2+x,1/2-y,z
_cell_length_a 8.5313(5)
_cell_length_b 20.4878(11)
_cell_length_c 11.6808(6)
_cell_angle_alpha 90
_cell_angle_beta 90
_cell_angle_gamma 90
_cell_formula_units_Z 8
loop_
_atom_type_symbol
_atom_type_radius_bond
C 0.68
F 0.64
I 1.40
N 0.68
S 1.02
loop_
_atom_site_label
_atom_site_type_symbol
_atom_site_fract_x
_atom_site_fract_y
_atom_site_fract_z
I1 I 0.49444(5) 0.33314(2) 0.14508(8)
S1 S 0.2710(3) -0.00969(8) 0.55803(19)
S2 S 0.1900(3) -0.04557(10) 0.4019(2)
N1 N 0.3256(8) 0.0610(3) 0.5049(6)
N2 N 0.2287(10) 0.0217(3) 0.3311(6)
C1 C 0.2960(8) 0.0672(3) 0.3948(7)
C2 C 0.3422(8) 0.1298(3) 0.3368(6)
C3 C 0.2854(9) 0.1890(4) 0.3742(6)
C4 C 0.3276(8) 0.2472(3) 0.3207(6)
C5 C 0.4270(8) 0.2469(3) 0.2267(6)
C6 C 0.4833(9) 0.1878(4) 0.1888(7)
C7 C 0.4424(9) 0.1302(3) 0.2445(7)
F1 F 0.1811(6) 0.1920(2) 0.4592(4)
F2 F 0.2679(6) 0.30348(18) 0.3602(4)
F3 F 0.5826(5) 0.1842(2) 0.1007(4)
F4 F 0.5045(6) 0.0740(2) 0.2047(4)
#END
