
#######################################################################
#
#                 Cambridge Crystallographic Data Centre
#                                CCDC
#
#######################################################################
#
# If this CIF has been generated from an entry in the Cambridge
# Structural Database, then it will include bibliographic, chemical,
# crystal, experimental, refinement or atomic coordinate data resulting
# from the CCDC's data processing and validation procedures.
#
#######################################################################

data_CSD_CIF_FILMOC01
_audit_creation_date 1988-09-21
_audit_creation_method CSD-ConQuest-V1
_database_code_CSD FILMOC01
_database_code_depnum_ccdc_archive 'CCDC 1156564'
_chemical_formula_sum 'C2 Cl9 P1'
_chemical_formula_moiety
;
C2 Cl9 P1
;
_journal_coden_Cambridge 82
_journal_volume 28
_journal_year 1987
_journal_page_first 105-5
_journal_name_full 'Zh.Strukt.Khim.(Russ.)(J.Struct.Chem.) '
loop_
_publ_author_name
"M.Yu.Antipin"
"A.N.Chernega"
"Yu.T.Struchkov"
"E.S.Kozlov"
"I.E.Boldeskul"
_chemical_name_systematic
;
bis(Trichloromethyl)-trichlorophosphorane
;
_chemical_name_common
;
Teaching Subset: Fundamental Chemistry, Symmetry
;
_cell_volume   1667.837
_exptl_crystal_density_diffrn 2.234
_diffrn_ambient_temperature ?
_diffrn_special_details
;
The study was carried out at room temperature,in the range 283-303K

;
#These two values have been output from a single CSD field.
_refine_ls_R_factor_gt 0.065
_refine_ls_wR_factor_gt 0.065
_symmetry_cell_setting rhombohedral
_symmetry_space_group_name_H-M 'R -3 m'
_symmetry_Int_Tables_number 166
loop_
_symmetry_equiv_pos_site_id
_symmetry_equiv_pos_as_xyz
1 x,y,z
2 1/3+x,2/3+y,2/3+z
3 2/3+x,1/3+y,1/3+z
4 -y,x-y,z
5 -x+y,-x,z
6 1/3-y,2/3+x-y,2/3+z
7 1/3-x+y,2/3-x,2/3+z
8 2/3-y,1/3+x-y,1/3+z
9 2/3-x+y,1/3-x,1/3+z
10 y,x,-z
11 2/3+y,1/3+x,1/3-z
12 1/3+y,2/3+x,2/3-z
13 x-y,-y,-z
14 -x,-x+y,-z
15 2/3+x-y,1/3-y,1/3-z
16 2/3-x,1/3-x+y,1/3-z
17 1/3+x-y,2/3-y,2/3-z
18 1/3-x,2/3-x+y,2/3-z
19 -x,-y,-z
20 -1/3-x,-2/3-y,-2/3-z
21 -2/3-x,-1/3-y,-1/3-z
22 y,-x+y,-z
23 x-y,x,-z
24 -1/3+y,-2/3-x+y,-2/3-z
25 -1/3+x-y,-2/3+x,-2/3-z
26 -2/3+y,-1/3-x+y,-1/3-z
27 -2/3+x-y,-1/3+x,-1/3-z
28 -y,-x,z
29 -2/3-y,-1/3-x,-1/3+z
30 -1/3-y,-2/3-x,-2/3+z
31 -x+y,y,z
32 x,x-y,z
33 -2/3-x+y,-1/3+y,-1/3+z
34 -2/3+x,-1/3+x-y,-1/3+z
35 -1/3-x+y,-2/3+y,-2/3+z
36 -1/3+x,-2/3+x-y,-2/3+z
_cell_length_a 10.457(1)
_cell_length_b 10.457(1)
_cell_length_c 17.612(1)
_cell_angle_alpha 90
_cell_angle_beta 90
_cell_angle_gamma 120
_cell_formula_units_Z 6
loop_
_atom_type_symbol
_atom_type_radius_bond
C 0.68
Cl 0.99
P 1.05
loop_
_atom_site_label
_atom_site_type_symbol
_atom_site_fract_x
_atom_site_fract_y
_atom_site_fract_z
P1 P 0.00000 0.00000 0.2569(1)
Cl1 Cl -0.11200 0.1120(1) 0.2568(2)
Cl2 Cl 0.09180 0.1836(2) 0.1080(1)
Cl3 Cl -0.18300 -0.0915(2) 0.4047(1)
C1 C 0.00000 0.00000 0.1441(6)
C2 C 0.00000 0.00000 0.3680(6)
Cl1C Cl -0.11200 -0.2240(1) 0.2568(2)
Cl1D Cl 0.22400 0.1120(1) 0.2568(2)
Cl2C Cl -0.18360 -0.0918(2) 0.1080(1)
Cl2D Cl 0.09180 -0.0918(2) 0.1080(1)
Cl3C Cl 0.09150 -0.0915(2) 0.4047(1)
Cl3D Cl 0.09150 0.1830(2) 0.4047(1)
#END
