
#######################################################################
#
#                 Cambridge Crystallographic Data Centre
#                                CCDC
#
#######################################################################
#
# If this CIF has been generated from an entry in the Cambridge
# Structural Database, then it will include bibliographic, chemical,
# crystal, experimental, refinement or atomic coordinate data resulting
# from the CCDC's data processing and validation procedures.
#
#######################################################################

data_CSD_CIF_HCLBNZ11
_audit_creation_date 1974-07-18
_audit_creation_method CSD-ConQuest-V1
_database_code_CSD HCLBNZ11
_database_code_depnum_ccdc_archive 'CCDC 1173350'
_chemical_formula_sum 'C6 Cl6'
_chemical_formula_moiety
;
C6 Cl6
;
_journal_coeditor_code "IUCr A10943"
_journal_coden_Cambridge 107
_journal_volume 30
_journal_year 1974
_journal_page_first 801
_journal_name_full 'Acta Crystallogr.,Sect.B:Struct.Crystallogr.Cryst.Chem. '
loop_
_publ_author_name
"G.M.Brown"
"O.A.W.Strydom"
_chemical_name_systematic
;
Hexachlorobenzene
;
_chemical_name_common
;
Teaching Subset: Fundamental Chemistry
;
_cell_volume    457.245
_diffrn_ambient_temperature ?
_diffrn_special_details
;
The study was carried out at room temperature,in the range 283-303K

;
#These two values have been output from a single CSD field.
_refine_ls_R_factor_gt 0.046
_refine_ls_wR_factor_gt 0.046
_symmetry_cell_setting monoclinic
_symmetry_space_group_name_H-M 'P 21/n'
_symmetry_Int_Tables_number 14
loop_
_symmetry_equiv_pos_site_id
_symmetry_equiv_pos_as_xyz
1 x,y,z
2 1/2-x,1/2+y,1/2-z
3 -x,-y,-z
4 -1/2+x,-1/2-y,-1/2+z
_cell_length_a 8.0476(8)
_cell_length_b 3.8363(5)
_cell_length_c 14.8208(29)
_cell_angle_alpha 90
_cell_angle_beta 92.134(14)
_cell_angle_gamma 90
_cell_formula_units_Z 2
loop_
_atom_type_symbol
_atom_type_radius_bond
C 0.68
Cl 0.99
loop_
_atom_site_label
_atom_site_type_symbol
_atom_site_fract_x
_atom_site_fract_y
_atom_site_fract_z
Cl1 Cl -0.34074 -0.25323 0.06742
Cl2 Cl -0.07620 0.05380 0.20344
Cl3 Cl -0.26662 -0.29525 -0.13671
C1 C -0.15272 -0.11190 0.03027
C2 C -0.03330 0.02262 0.09141
C3 C -0.11972 -0.13409 -0.06102
C3B C 0.11972 0.13409 0.06102
C2B C 0.03330 -0.02262 -0.09141
Cl3B Cl 0.26662 0.29525 0.13671
C1B C 0.15272 0.11190 -0.03027
Cl2B Cl 0.07620 -0.05380 -0.20344
Cl1B Cl 0.34074 0.25323 -0.06742
#END
