
#######################################################################
#
#                 Cambridge Crystallographic Data Centre
#                                CCDC
#
#######################################################################
#
# If this CIF has been generated from an entry in the Cambridge
# Structural Database, then it will include bibliographic, chemical,
# crystal, experimental, refinement or atomic coordinate data resulting
# from the CCDC's data processing and validation procedures.
#
#######################################################################

data_CSD_CIF_KUYYUY
_audit_creation_date 1993-08-06
_audit_creation_method CSD-ConQuest-V1
_database_code_CSD KUYYUY
_database_code_depnum_ccdc_archive 'CCDC 1202063'
_chemical_formula_sum 'C8 F13 N1 S2'
_chemical_formula_moiety
;
C8 F13 N1 S2
;
_journal_coden_Cambridge 4
_journal_volume 114
_journal_year 1992
_journal_page_first 9465
_journal_name_full 'J.Am.Chem.Soc. '
loop_
_publ_author_name
"J.Buschmann"
"R.Damerius"
"R.Gerhardt"
"D.Lentz"
"P.Luger"
"R.Marschall"
"D.Preugschat"
"K.Seppelt"
"A.Simon"
_chemical_name_systematic
;
(2-Fluoro-2-perfluorophenylimino-1-pentafluorosulfurethylidene)sulfur 
difluoride
;
_chemical_name_common
;
Teaching Subset: Fundamental Chemistry
;
_cell_volume    614.164
_exptl_crystal_density_diffrn 2.283
_exptl_special_details
;
Author has supplied correct coordinates for C5

;
_diffrn_ambient_temperature 108
#These two values have been output from a single CSD field.
_refine_ls_R_factor_gt 0.071
_refine_ls_wR_factor_gt 0.071
_symmetry_cell_setting triclinic
_symmetry_space_group_name_H-M 'P -1'
_symmetry_Int_Tables_number 2
loop_
_symmetry_equiv_pos_site_id
_symmetry_equiv_pos_as_xyz
1 x,y,z
2 -x,-y,-z
_cell_length_a 7.304(1)
_cell_length_b 7.406(2)
_cell_length_c 12.055(4)
_cell_angle_alpha 85.53(3)
_cell_angle_beta 86.08(2)
_cell_angle_gamma 71.03(2)
_cell_formula_units_Z 2
loop_
_atom_type_symbol
_atom_type_radius_bond
C 0.68
F 0.64
N 0.68
S 1.02
loop_
_atom_site_label
_atom_site_type_symbol
_atom_site_fract_x
_atom_site_fract_y
_atom_site_fract_z
S1 S 0.0985(2) 0.6832(2) 0.3531(1)
S2 S 0.4607(2) 0.7979(2) 0.3501(1)
F1 F 0.3979(4) 0.8452(5) -0.0546(2)
F2 F 0.3564(5) 0.7964(5) -0.2699(3)
F3 F 0.0441(5) 0.7080(5) -0.3287(2)
F4 F -0.2243(4) 0.6660(5) -0.1714(3)
F5 F -0.1822(4) 0.7107(4) 0.0455(3)
F6 F 0.4385(4) 0.6083(4) 0.1229(2)
F7 F 0.0056(5) 0.8370(6) 0.4413(3)
F8 F 0.1727(5) 0.5265(5) 0.4517(3)
F9 F 0.4060(5) 0.7279(5) 0.4702(2)
F10 F 0.3188(5) 1.0038(5) 0.3702(3)
F11 F 0.6144(4) 0.5958(5) 0.3332(3)
F12 F 0.5226(5) 0.8716(5) 0.2324(3)
F13 F 0.6232(4) 0.8566(5) 0.4024(3)
N1 N 0.1221(6) 0.8009(6) 0.1155(3)
C1 C 0.2463(7) 0.7939(7) -0.0817(4)
C2 C 0.2252(8) 0.7729(7) -0.1921(4)
C3 C 0.0654(7) 0.7317(7) -0.2222(4)
C4 C -0.0702(7) 0.7110(7) -0.1413(4)
C5 C -0.0478(7) 0.7318(7) -0.0315(4)
C6 C 0.1148(7) 0.7690(7) 0.0020(4)
C7 C 0.2710(7) 0.7206(7) 0.1689(4)
C8 C 0.2747(7) 0.7324(7) 0.2893(4)
#END
