
#######################################################################
#
#                 Cambridge Crystallographic Data Centre
#                                CCDC
#
#######################################################################
#
# If this CIF has been generated from an entry in the Cambridge
# Structural Database, then it will include bibliographic, chemical,
# crystal, experimental, refinement or atomic coordinate data resulting
# from the CCDC's data processing and validation procedures.
#
#######################################################################

data_CSD_CIF_VUGSIZ
_audit_creation_date 1993-02-02
_audit_creation_method CSD-ConQuest-V1
_database_code_CSD VUGSIZ
_database_code_depnum_ccdc_archive 'CCDC 1287561'
_chemical_formula_sum 'C3 Cl3 N3'
_chemical_formula_moiety
;
C3 Cl3 N3
;
_journal_coden_Cambridge 24
_journal_volume 33
_journal_year 1992
_journal_page_first 4707
_journal_name_full 'Tetrahedron Lett. '
loop_
_publ_author_name
"R.A.Pascal Junior"
"D.M.Ho"
_chemical_name_systematic
;
2,4,6-Trichloro-1,3,5-triazine
;
_chemical_name_common
;
Cyanuric chloride; Teaching Subset: Fundamental Chemistry, Symmetry
;
_cell_volume    628.826
_exptl_crystal_colour 'colorless'
_exptl_crystal_density_diffrn 1.948
_diffrn_ambient_temperature 230
#These two values have been output from a single CSD field.
_refine_ls_R_factor_gt 0.026
_refine_ls_wR_factor_gt 0.026
_symmetry_cell_setting monoclinic
_symmetry_space_group_name_H-M 'C 2/c'
_symmetry_Int_Tables_number 15
loop_
_symmetry_equiv_pos_site_id
_symmetry_equiv_pos_as_xyz
1 x,y,z
2 1/2+x,1/2+y,z
3 -x,y,1/2-z
4 1/2-x,1/2+y,1/2-z
5 -x,-y,-z
6 -1/2-x,-1/2-y,-z
7 x,-y,-1/2+z
8 -1/2+x,-1/2-y,-1/2+z
_cell_length_a 12.925(2)
_cell_length_b 7.455(1)
_cell_length_c 7.540(1)
_cell_angle_alpha 90
_cell_angle_beta 120.057(9)
_cell_angle_gamma 90
_cell_formula_units_Z 4
loop_
_atom_type_symbol
_atom_type_radius_bond
C 0.68
Cl 0.99
N 0.68
loop_
_atom_site_label
_atom_site_type_symbol
_atom_site_fract_x
_atom_site_fract_y
_atom_site_fract_z
Cl1 Cl 0.50000 0.0746(1) 0.25000
Cl2 Cl 0.7066(1) -0.5269(1) 0.2736(1)
N1 N 0.5949(1) -0.2338(2) 0.2604(3)
N2 N 0.50000 -0.5096(3) 0.25000
C1 C 0.50000 -0.1554(4) 0.25000
C2 C 0.5881(2) -0.4115(3) 0.2599(3)
N1B N 0.4051(1) -0.2338(2) 0.2396(3)
C2B C 0.4119(2) -0.4115(3) 0.2401(3)
Cl2B Cl 0.2934(1) -0.5269(1) 0.2264(1)
#END
